N = 7;
Capacity = 11;
Demand = [6, 2, 2, 7, 2, 6, 6];
Distance = [|
  0, 28, 28, 24, 11, 39, 35, 20
| 28, 0, 41, 5, 20, 67, 52, 48
| 28, 41, 0, 37, 25, 43, 11, 34
| 24, 5, 37, 0, 15, 63, 48, 44
| 11, 20, 25, 15, 0, 48, 35, 30
| 39, 67, 43, 63, 48, 0, 38, 19
| 35, 52, 11, 48, 35, 38, 0, 34
| 20, 48, 34, 44, 30, 19, 34, 0
|];
